temp.lp
Minimize
 obj:  + 132.25 x131 + 132.25 x132 + 90.25 x133 + 90.25 x134 + 56.25 x135 + 56.25 x136 + 42.25 x137 + 42.25 x138 + 42.25 x139 + 42.25 x140 + 42.25 x141 + 42.25 x142 + 56.25 x143 + 56.25 x144 + 90.25 x145 + 90.25 x146 + 132.25 x147 + 132.25 x148 + 132.25 x149 + 132.25 x150 + 90.25 x151 + 90.25 x152 + 56.25 x153 + 56.25 x154 + 30.25 x155 + 30.25 x156 + 20.25 x157 + 20.25 x158 + 20.25 x159 + 20.25 x160 + 30.25 x161 + 30.25 x162 + 56.25 x163 + 56.25 x164 + 90.25 x165 + 90.25 x166 + 132.25 x167 + 132.25 x168 + 90.25 x169 + 90.25 x170 + 42.25 x171 + 42.25 x172 + 12.25 x173 + 12.25 x174 + 2.25 x175 + 2.25 x176 + 2.25 x177 + 2.25 x178 + 2.25 x179 + 2.25 x180 + 12.25 x181 + 12.25 x182 + 42.25 x183 + 42.25 x184 + 90.25 x185 + 90.25 x186 + 90.25 x187 + 90.25 x188 + 42.25 x189 + 42.25 x190 + 42.25 x191 + 42.25 x192 + 90.25 x193 + 90.25 x194 + 56.25 x195 + 56.25 x196 + 56.25 x197 + 56.25 x198 + 56.25 x199 + 56.25 x200 + 12.25 x201 + 12.25 x202 + 12.25 x203 + 12.25 x204 + 56.25 x205 + 56.25 x206 + 30.25 x207 + 30.25 x208 + 30.25 x209 + 30.25 x210 + 42.25 x211 + 42.25 x212 + 2.25 x213 + 2.25 x214 + 2.25 x215 + 2.25 x216 + 42.25 x217 + 42.25 x218 + 20.25 x219 + 20.25 x220 + 20.25 x221 + 20.25 x222 + 42.25 x223 + 42.25 x224 + 2.25 x225 + 2.25 x226 + 2.25 x227 + 2.25 x228 + 42.25 x229 + 42.25 x230 + 20.25 x231 + 20.25 x232 + 20.25 x233 + 20.25 x234 + 42.25 x235 + 42.25 x236 + 2.25 x237 + 2.25 x238 + 2.25 x239 + 2.25 x240 + 42.25 x241 + 42.25 x242 + 30.25 x243 + 30.25 x244 + 30.25 x245 + 30.25 x246 + 56.25 x247 + 56.25 x248 + 12.25 x249 + 12.25 x250 + 12.25 x251 + 12.25 x252 + 56.25 x253 + 56.25 x254 + 56.25 x255 + 56.25 x256 + 56.25 x257 + 56.25 x258 + 90.25 x259 + 90.25 x260 + 42.25 x261 + 42.25 x262 + 42.25 x263 + 42.25 x264 + 90.25 x265 + 90.25 x266 + 90.25 x267 + 90.25 x268 + 42.25 x269 + 42.25 x270 + 12.25 x271 + 12.25 x272 + 2.25 x273 + 2.25 x274 + 2.25 x275 + 2.25 x276 + 2.25 x277 + 2.25 x278 + 12.25 x279 + 12.25 x280 + 42.25 x281 + 42.25 x282 + 90.25 x283 + 90.25 x284 + 132.25 x285 + 132.25 x286 + 90.25 x287 + 90.25 x288 + 56.25 x289 + 56.25 x290 + 30.25 x291 + 30.25 x292 + 20.25 x293 + 20.25 x294 + 20.25 x295 + 20.25 x296 + 30.25 x297 + 30.25 x298 + 56.25 x299 + 56.25 x300 + 90.25 x301 + 90.25 x302 + 132.25 x303 + 132.25 x304 + 132.25 x305 + 132.25 x306 + 90.25 x307 + 90.25 x308 + 56.25 x309 + 56.25 x310 + 42.25 x311 + 42.25 x312 + 42.25 x313 + 42.25 x314 + 42.25 x315 + 42.25 x316 + 56.25 x317 + 56.25 x318 + 90.25 x319 + 90.25 x320 + 132.25 x321 + 132.25 x322
Subject To
c1: - x132 + x131 - x15 = 0
c2: - x134 + x133 - x20 = 0
c3: - x136 + x135 - x3 = 0
c4: - x138 + x137 - x22 = 0
c5: - x140 + x139 - x16 = 0
c6: - x142 + x141 - x17 = 0
c7: - x144 + x143 - x8 = 0
c8: - x146 + x145 - x6 = 0
c9: - x148 + x147 - x21 = 0
c10: - x150 + x149 + x15 = 0
c11: - x152 + x151 + x20 - x15 = 0
c12: - x154 + x153 + x3 - x20 = 0
c13: - x156 + x155 + x22 - x3 = 0
c14: - x158 + x157 + x16 - x22 = 0
c15: - x160 + x159 + x17 - x16 = 0
c16: - x162 + x161 + x8 - x17 = 0
c17: - x164 + x163 + x6 - x8 = 0
c18: - x166 + x165 + x21 - x6 = 0
c19: - x168 + x167 - x21 = 0
c20: - x170 + x169 + x15 - x10 = 0
c21: - x172 + x171 + x20 = 1
c22: - x174 + x173 + x3 = 1
c23: - x176 + x175 + x22 = 1
c24: - x178 + x177 + x16 = 1
c25: - x180 + x179 + x17 = 1
c26: - x182 + x181 + x8 = 1
c27: - x184 + x183 + x6 = 1
c28: - x186 + x185 + x21 - x24 = 0
c29: - x188 + x187 + x10 = 0
c30: - x190 + x189 - x10 = -1
c31: - x192 + x191 + x24 = 1
c32: - x194 + x193 - x24 = 0
c33: - x196 + x195 + x10 - x29 = 0
c34: - x198 + x197 + x24 - x23 = 0
c35: - x200 + x199 + x29 = 0
c36: - x202 + x201 - x29 = -1
c37: - x204 + x203 + x23 = 1
c38: - x206 + x205 - x23 = 0
c39: - x208 + x207 + x29 - x0 = 0
c40: - x210 + x209 + x23 - x18 = 0
c41: - x212 + x211 + x0 = 0
c42: - x214 + x213 - x0 = -1
c43: - x216 + x215 + x18 = 1
c44: - x218 + x217 - x18 = 0
c45: - x220 + x219 + x0 - x9 = 0
c46: - x222 + x221 + x18 - x14 = 0
c47: - x224 + x223 + x9 = 0
c48: - x226 + x225 - x9 = -1
c49: - x228 + x227 + x14 = 1
c50: - x230 + x229 - x14 = 0
c51: - x232 + x231 + x9 - x5 = 0
c52: - x234 + x233 + x14 - x19 = 0
c53: - x236 + x235 + x5 = 0
c54: - x238 + x237 - x5 = -1
c55: - x240 + x239 + x19 = 1
c56: - x242 + x241 - x19 = 0
c57: - x244 + x243 + x5 - x26 = 0
c58: - x246 + x245 + x19 - x31 = 0
c59: - x248 + x247 + x26 = 0
c60: - x250 + x249 - x26 = -1
c61: - x252 + x251 + x31 = 1
c62: - x254 + x253 - x31 = 0
c63: - x256 + x255 + x26 - x12 = 0
c64: - x258 + x257 + x31 - x11 = 0
c65: - x260 + x259 + x12 = 0
c66: - x262 + x261 - x12 = -1
c67: - x264 + x263 + x11 = 1
c68: - x266 + x265 - x11 = 0
c69: - x268 + x267 + x12 - x1 = 0
c70: - x270 + x269 - x30 = -1
c71: - x272 + x271 - x28 = -1
c72: - x274 + x273 - x27 = -1
c73: - x276 + x275 - x13 = -1
c74: - x278 + x277 - x7 = -1
c75: - x280 + x279 - x4 = -1
c76: - x282 + x281 - x2 = -1
c77: - x284 + x283 + x11 - x25 = 0
c78: - x286 + x285 + x1 = 0
c79: - x288 + x287 + x30 - x1 = 0
c80: - x290 + x289 + x28 - x30 = 0
c81: - x292 + x291 + x27 - x28 = 0
c82: - x294 + x293 + x13 - x27 = 0
c83: - x296 + x295 + x7 - x13 = 0
c84: - x298 + x297 + x4 - x7 = 0
c85: - x300 + x299 + x2 - x4 = 0
c86: - x302 + x301 + x25 - x2 = 0
c87: - x304 + x303 - x25 = 0
c88: - x306 + x305 + x1 = 0
c89: - x308 + x307 + x30 = 0
c90: - x310 + x309 + x28 = 0
c91: - x312 + x311 + x27 = 0
c92: - x314 + x313 + x13 = 0
c93: - x316 + x315 + x7 = 0
c94: - x318 + x317 + x4 = 0
c95: - x320 + x319 + x2 = 0
c96: - x322 + x321 + x25 = 0

Bounds

Binaries
x15 x20 x3 x22 x16 x17 x8 x6 x21 x10 x24 x29 x23 x0 x18 x9 x14 x5 x19 x26 x31 x12 x11 x1 x30 x28 x27 x13 x7 x4 x2 x25 

End