temp.sol
# Solution for model obj
# Objective value = 463
x131 0
x132 0
x133 0
x134 0
x135 0
x136 0
x137 0
x138 0
x139 0
x140 0
x141 0
x142 0
x143 0
x144 0
x145 0
x146 0
x147 0
x148 0
x149 0
x150 0
x151 0
x152 0
x153 0
x154 0
x155 0
x156 0
x157 0
x158 0
x159 0
x160 0
x161 0
x162 0
x163 0
x164 0
x165 0
x166 0
x167 0
x168 0
x169 0
x170 0
x171 1
x172 0
x173 1
x174 0
x175 1
x176 0
x177 1
x178 0
x179 1
x180 0
x181 1
x182 0
x183 1
x184 0
x185 0
x186 0
x187 0
x188 0
x189 0
x190 1
x191 1
x192 0
x193 0
x194 0
x195 0
x196 0
x197 0
x198 0
x199 0
x200 0
x201 0
x202 1
x203 1
x204 0
x205 0
x206 0
x207 0
x208 0
x209 0
x210 0
x211 0
x212 0
x213 0
x214 1
x215 1
x216 0
x217 0
x218 0
x219 0
x220 0
x221 0
x222 0
x223 0
x224 0
x225 0
x226 1
x227 1
x228 0
x229 0
x230 0
x231 0
x232 0
x233 0
x234 0
x235 0
x236 0
x237 0
x238 1
x239 1
x240 0
x241 0
x242 0
x243 0
x244 0
x245 0
x246 0
x247 0
x248 0
x249 0
x250 1
x251 1
x252 0
x253 0
x254 0
x255 0
x256 0
x257 0
x258 0
x259 0
x260 0
x261 0
x262 1
x263 1
x264 0
x265 0
x266 0
x267 0
x268 0
x269 0
x270 1
x271 0
x272 1
x273 0
x274 1
x275 0
x276 1
x277 0
x278 1
x279 0
x280 1
x281 0
x282 1
x283 0
x284 0
x285 0
x286 0
x287 0
x288 0
x289 0
x290 0
x291 0
x292 0
x293 0
x294 0
x295 0
x296 0
x297 0
x298 0
x299 0
x300 0
x301 0
x302 0
x303 0
x304 0
x305 0
x306 0
x307 0
x308 0
x309 0
x310 0
x311 0
x312 0
x313 0
x314 0
x315 0
x316 0
x317 0
x318 0
x319 0
x320 0
x321 0
x322 0
x15 0
x20 0
x3 0
x22 0
x16 0
x17 0
x8 0
x6 0
x21 0
x10 0
x24 0
x29 0
x23 0
x0 0
x18 0
x9 0
x14 0
x5 0
x19 0
x26 0
x31 0
x12 0
x11 0
x1 0
x30 0
x28 0
x27 0
x13 0
x7 0
x4 0
x2 0
x25 0
